c generated by sgen1
c Command: ./sgen1 -unsat -n 103 -s 100 
p cnf 105 220
-2 -3 -4 0
-1 -3 -4 0
-1 -2 -4 0
-1 -2 -3 0
-6 -7 -8 0
-5 -7 -8 0
-5 -6 -8 0
-5 -6 -7 0
-10 -11 -12 0
-9 -11 -12 0
-9 -10 -12 0
-9 -10 -11 0
-14 -15 -16 0
-13 -15 -16 0
-13 -14 -16 0
-13 -14 -15 0
-18 -19 -20 0
-17 -19 -20 0
-17 -18 -20 0
-17 -18 -19 0
-22 -23 -24 0
-21 -23 -24 0
-21 -22 -24 0
-21 -22 -23 0
-26 -27 -28 0
-25 -27 -28 0
-25 -26 -28 0
-25 -26 -27 0
-30 -31 -32 0
-29 -31 -32 0
-29 -30 -32 0
-29 -30 -31 0
-34 -35 -36 0
-33 -35 -36 0
-33 -34 -36 0
-33 -34 -35 0
-38 -39 -40 0
-37 -39 -40 0
-37 -38 -40 0
-37 -38 -39 0
-42 -43 -44 0
-41 -43 -44 0
-41 -42 -44 0
-41 -42 -43 0
-46 -47 -48 0
-45 -47 -48 0
-45 -46 -48 0
-45 -46 -47 0
-50 -51 -52 0
-49 -51 -52 0
-49 -50 -52 0
-49 -50 -51 0
-54 -55 -56 0
-53 -55 -56 0
-53 -54 -56 0
-53 -54 -55 0
-58 -59 -60 0
-57 -59 -60 0
-57 -58 -60 0
-57 -58 -59 0
-62 -63 -64 0
-61 -63 -64 0
-61 -62 -64 0
-61 -62 -63 0
-66 -67 -68 0
-65 -67 -68 0
-65 -66 -68 0
-65 -66 -67 0
-70 -71 -72 0
-69 -71 -72 0
-69 -70 -72 0
-69 -70 -71 0
-74 -75 -76 0
-73 -75 -76 0
-73 -74 -76 0
-73 -74 -75 0
-78 -79 -80 0
-77 -79 -80 0
-77 -78 -80 0
-77 -78 -79 0
-82 -83 -84 0
-81 -83 -84 0
-81 -82 -84 0
-81 -82 -83 0
-86 -87 -88 0
-85 -87 -88 0
-85 -86 -88 0
-85 -86 -87 0
-90 -91 -92 0
-89 -91 -92 0
-89 -90 -92 0
-89 -90 -91 0
-94 -95 -96 0
-93 -95 -96 0
-93 -94 -96 0
-93 -94 -95 0
-98 -99 -100 0
-97 -99 -100 0
-97 -98 -100 0
-97 -98 -99 0
-101 -102 -103 0
-101 -102 -104 0
-101 -102 -105 0
-101 -103 -104 0
-101 -103 -105 0
-101 -104 -105 0
-102 -103 -104 0
-102 -103 -105 0
-102 -104 -105 0
-103 -104 -105 0
65 75 19 0
53 75 19 0
53 65 19 0
53 65 75 0
24 69 90 0
103 69 90 0
103 24 90 0
103 24 69 0
96 71 43 0
2 71 43 0
2 96 43 0
2 96 71 0
33 77 105 0
28 77 105 0
28 33 105 0
28 33 77 0
6 18 35 0
31 18 35 0
31 6 35 0
31 6 18 0
97 32 55 0
85 32 55 0
85 97 55 0
85 97 32 0
60 8 64 0
41 8 64 0
41 60 64 0
41 60 8 0
51 80 83 0
30 80 83 0
30 51 83 0
30 51 80 0
34 89 87 0
52 89 87 0
52 34 87 0
52 34 89 0
48 61 94 0
66 61 94 0
66 48 94 0
66 48 61 0
78 76 47 0
70 76 47 0
70 78 47 0
70 78 76 0
36 82 3 0
101 82 3 0
101 36 3 0
101 36 82 0
59 25 22 0
88 25 22 0
88 59 22 0
88 59 25 0
57 15 54 0
92 15 54 0
92 57 54 0
92 57 15 0
5 23 45 0
40 23 45 0
40 5 45 0
40 5 23 0
16 29 67 0
42 29 67 0
42 16 67 0
42 16 29 0
63 9 21 0
1 9 21 0
1 63 21 0
1 63 9 0
50 27 4 0
68 27 4 0
68 50 4 0
68 50 27 0
56 12 84 0
46 12 84 0
46 56 84 0
46 56 12 0
38 26 91 0
17 26 91 0
17 38 91 0
17 38 26 0
49 37 58 0
73 37 58 0
73 49 58 0
73 49 37 0
14 10 7 0
72 10 7 0
72 14 7 0
72 14 10 0
102 95 74 0
99 95 74 0
99 102 74 0
99 102 95 0
44 104 79 0
86 104 79 0
86 44 79 0
86 44 104 0
93 11 39 0
98 11 39 0
98 93 39 0
98 93 11 0
81 100 13 0
81 100 62 0
81 100 20 0
81 13 62 0
81 13 20 0
81 62 20 0
100 13 62 0
100 13 20 0
100 62 20 0
13 62 20 0
